587549691334971898 -1 0
h -2 3 0
543081517362116162 -4 0
157977792303947092 -5 0
556857603747151961 -6 0
552584389649376359 -7 0
h -8 -9 0
75351816152881343 -10 0
h 11 12 0
352813805333256725 -13 0
298024398835120390 -14 0
637612058026227287 -15 0
h -16 -17 0
612912414721203802 -18 0
309500248199979475 -19 0
h -11 15 2 0
145970111921901873 -20 0
325306941897622358 -21 0
234736730856265781 -22 0
367620747856447872 -23 0
502738812538836037 -12 0
560999910993059442 -24 0
457009581557595282 -25 0
h 9 26 0
442116591393565179 -27 0
620073336731613674 -28 0
h 29 16 0
618759563065167068 -3 0
h 11 -29 0
613093384581214330 -30 0
249695920763429783 -31 0
359224021996706147 -32 0
109848085378163152 -33 0
h -8 17 0
191329314675095735 -34 0
65503807456370647 -35 0
h 9 12 0
h 28 8 0
552568893994036202 -26 0
h 29 34 0
